NAME : 	X-n157-k13	
COMMENT : 	"Generated by Uchoa, Pecin, Pessoa, Poggi, Subramanian, and Vidal (2013)"	
TYPE : 	CVRP	
DIMENSION : 	157	
EDGE_WEIGHT_TYPE : 	EUC_2D	
CAPACITY : 	12	
NODE_COORD_SECTION		
1	769	259
2	91	377
3	108	338
4	816	567
5	725	520
6	117	357
7	766	559
8	90	417
9	255	430
10	63	384
11	35	276
12	122	318
13	85	322
14	267	348
15	937	546
16	865	461
17	863	547
18	724	431
19	148	144
20	243	571
21	871	512
22	782	596
23	77	272
24	776	650
25	166	371
26	69	239
27	972	607
28	320	521
29	91	434
30	20	305
31	81	271
32	776	669
33	830	553
34	148	243
35	160	202
36	741	527
37	877	561
38	587	551
39	808	435
40	26	278
41	58	394
42	755	444
43	817	557
44	165	367
45	216	510
46	124	330
47	96	587
48	132	369
49	163	234
50	915	492
51	753	657
52	161	319
53	37	227
54	898	747
55	770	524
56	745	582
57	695	469
58	124	355
59	11	283
60	258	406
61	72	335
62	713	399
63	866	626
64	214	344
65	213	349
66	864	577
67	98	440
68	701	512
69	884	559
70	842	518
71	125	379
72	352	410
73	206	228
74	825	592
75	93	252
76	863	511
77	98	347
78	115	326
79	71	392
80	96	248
81	65	404
82	75	342
83	140	300
84	129	340
85	129	273
86	846	696
87	109	463
88	863	586
89	139	356
90	77	351
91	154	322
92	231	323
93	115	394
94	844	558
95	98	454
96	739	568
97	179	443
98	862	618
99	764	764
100	844	554
101	174	319
102	703	319
103	151	453
104	863	569
105	72	473
106	632	575
107	823	578
108	26	42
109	47	381
110	71	336
111	754	484
112	137	465
113	80	355
114	172	296
115	28	310
116	754	579
117	531	662
118	87	382
119	866	481
120	93	337
121	942	567
122	788	567
123	824	451
124	926	901
125	182	500
126	98	384
127	104	370
128	48	462
129	952	629
130	239	324
131	138	516
132	747	605
133	136	460
134	748	624
135	43	268
136	792	597
137	95	352
138	109	413
139	67	224
140	104	386
141	817	672
142	183	360
143	922	652
144	779	419
145	863	721
146	40	456
147	66	395
148	862	465
149	383	357
150	307	434
151	233	421
152	329	280
153	623	554
154	103	349
155	736	688
156	75	266
157	174	406
DEMAND_SECTION		
1	0	
2	1	
3	1	
4	1	
5	1	
6	1	
7	1	
8	1	
9	1	
10	1	
11	1	
12	1	
13	1	
14	1	
15	1	
16	1	
17	1	
18	1	
19	1	
20	1	
21	1	
22	1	
23	1	
24	1	
25	1	
26	1	
27	1	
28	1	
29	1	
30	1	
31	1	
32	1	
33	1	
34	1	
35	1	
36	1	
37	1	
38	1	
39	1	
40	1	
41	1	
42	1	
43	1	
44	1	
45	1	
46	1	
47	1	
48	1	
49	1	
50	1	
51	1	
52	1	
53	1	
54	1	
55	1	
56	1	
57	1	
58	1	
59	1	
60	1	
61	1	
62	1	
63	1	
64	1	
65	1	
66	1	
67	1	
68	1	
69	1	
70	1	
71	1	
72	1	
73	1	
74	1	
75	1	
76	1	
77	1	
78	1	
79	1	
80	1	
81	1	
82	1	
83	1	
84	1	
85	1	
86	1	
87	1	
88	1	
89	1	
90	1	
91	1	
92	1	
93	1	
94	1	
95	1	
96	1	
97	1	
98	1	
99	1	
100	1	
101	1	
102	1	
103	1	
104	1	
105	1	
106	1	
107	1	
108	1	
109	1	
110	1	
111	1	
112	1	
113	1	
114	1	
115	1	
116	1	
117	1	
118	1	
119	1	
120	1	
121	1	
122	1	
123	1	
124	1	
125	1	
126	1	
127	1	
128	1	
129	1	
130	1	
131	1	
132	1	
133	1	
134	1	
135	1	
136	1	
137	1	
138	1	
139	1	
140	1	
141	1	
142	1	
143	1	
144	1	
145	1	
146	1	
147	1	
148	1	
149	1	
150	1	
151	1	
152	1	
153	1	
154	1	
155	1	
156	1	
157	1	
DEPOT_SECTION		
	1	
	-1	
EOF		
